Route #1: 29 101 63 95 21 102 5 93 58 108 96
Route #2: 112 111 113 85 76 84 9 15 69 44 41 68 40 91 38 99 35 27 47
Route #3: 90 18 67 107 74 88 87 61 49 109 20 52 26 3 92 42 105
Route #4: 65 64 8 2 75 86
Route #5: 37 66 24 23 97 46 13 114 59 78 39 98 81 56 77 72 25 103 73
Route #6: 60 43 36 100 50 80 48 110 19 94 4 33 16
Route #7: 11
Route #8: 53 22 83 89 106 28 45 31 115 55 10 79 54 30 51
Route #9: 7 6 17
Route #10: 14 71 57 32 12 82 34 62 104 70
Cost 22747
